(declare-fun temp682_1 () (_ BitVec 64))
(declare-fun var525626 () (_ BitVec 64))
(declare-fun temp682_2 () (_ BitVec 64))
(declare-fun var787770 () (_ BitVec 64))
(declare-fun temp682_3 () (_ BitVec 64))
(declare-fun var1836346 () (_ BitVec 64))
(declare-fun temp682_4 () (_ BitVec 64))
(declare-fun var2098490 () (_ BitVec 64))
(declare-fun temp682_6 () (_ BitVec 64))
(declare-fun temp682_5 () (_ BitVec 64))
(assert (= temp682_1 #x0000000000000000))
(assert (= var525626 temp682_1))
(assert (= temp682_2 #x0000000000000000))
(assert (= var787770 temp682_2))
(assert (= temp682_3 #x0000000000000000))
(assert (= var1836346 temp682_3))
(assert (= temp682_4 #x0000000000000000))
(assert (= var2098490 temp682_4))
(assert (= temp682_6 #x0000000000000000))
(assert (= temp682_5 temp682_6))
(model-add temp682_1 () (_ BitVec 64) #x0000000000000000)
(model-add var525626 () (_ BitVec 64) #x0000000000000000)
(model-add temp682_2 () (_ BitVec 64) #x0000000000000000)
(model-add var787770 () (_ BitVec 64) #x0000000000000000)
(model-add temp682_3 () (_ BitVec 64) #x0000000000000000)
(model-add var1836346 () (_ BitVec 64) #x0000000000000000)
(model-add temp682_4 () (_ BitVec 64) #x0000000000000000)
(model-add var2098490 () (_ BitVec 64) #x0000000000000000)
(model-add temp682_6 () (_ BitVec 64) #x0000000000000000)
(model-add temp682_5 () (_ BitVec 64) #x0000000000000000)





